Problem:    
Rows:       256
Columns:    89 (72 integer, 72 binary)
Non-zeros:  800
Status:     INTEGER OPTIMAL
Objective:  value = 80.517908 (MINimum)

   No.   Row name        Activity     Lower bound   Upper bound
------ ------------    ------------- ------------- -------------
     1 r.5                   1080.52             0               
     2 r.6                  -935.471      -976.138               
     3 r.7                   80.5179             0               
     4 r.8                   64.5295      -981.153               
     5 r.9                   80.5179             0               
     6 r.10                 -969.273      -971.974               
     7 r.11                  1080.52             0               
     8 r.12                 -979.186      -981.887               
     9 r.13                  80.5179             0               
    10 r.14                  48.1984      -961.504               
    11 r.15                  1080.52             0               
    12 r.16                 -951.802      -974.891               
    13 r.17                  1080.52             0               
    14 r.18                  -977.08      -979.781               
    15 r.19                  80.5179             0               
    16 r.20                  23.0896      -980.544               
    17 r.21                  1080.52             0               
    18 r.22                 -959.332      -982.253               
    19 r.23                  80.5179             0               
    20 r.24                  48.1984      -982.458               
    21 r.25                  1080.52             0               
    22 r.26                 -997.299      -997.299               
    23 r.27                  80.5179             0               
    24 r.28                  2.70087      -972.421               
    25 r.29                  80.5179             0               
    26 r.30                  80.5179      -960.031               
    27 r.31                  1080.52             0               
    28 r.32                 -919.482      -984.012               
    29 r.33                  80.5179             0               
    30 r.34                  80.5179      -957.743               
    31 r.35                  1080.52             0               
    32 r.36                 -935.471      -983.669               
    33 r.37                        1             1             = 
    34 r.38                        1             1             = 
    35 r.39                        1             1             = 
    36 r.40                        1             1             = 
    37 r.41                        1             1             = 
    38 r.42                        1             1             = 
    39 r.43                        1             1             = 
    40 r.44                        1             1             = 
    41 r.45                     1001             2               
    42 r.46                    -1001         -1001               
    43 r.47                  966.197      -971.974               
    44 r.48                     1001             2               
    45 r.49                    -1001         -1001               
    46 r.50                  1956.28      -981.887               
    47 r.51                     1001             2               
    48 r.52                    -1001         -1001               
    49 r.53                  1983.67      -961.504               
    50 r.54                     1001             2               
    51 r.55                    -1001         -1001               
    52 r.56                  1983.67      -974.891               
    53 r.57                        2             2               
    54 r.58                       -2         -1001               
    55 r.59                 -41.6091      -979.781               
    56 r.60                     1000             2               
    57 r.61                    -1000         -1001               
    58 r.62                  1958.56      -980.544               
    59 r.63                        2             2               
    60 r.64                       -2         -1001               
    61 r.65                 -23.8618      -982.253               
    62 r.66                     1000             2               
    63 r.67                    -1000         -1001               
    64 r.68                  1983.67      -982.458               
    65 r.69                 -938.171      -976.138               
    66 r.70                  61.8286      -981.153               
    67 r.71                 -938.171      -976.138               
    68 r.72                  61.8286      -981.153               
    69 r.73                  15.9884      -960.031               
    70 r.74                 -984.012      -984.012               
    71 r.75                  15.9884      -960.031               
    72 r.76                 -984.012      -984.012               
    73 r.77                     1001             2               
    74 r.78                    -1001         -1001               
    75 r.79                  2015.99      -957.743               
    76 r.80                     1001             2               
    77 r.81                    -1001         -1001               
    78 r.82                     2000      -983.669               
    79 r.83                     1001             2               
    80 r.84                    -1001         -1001               
    81 r.85                   3033.8       23.8618               
    82 r.86                     1001             2               
    83 r.87                    -1001         -1001               
    84 r.88                  2043.72       18.8466               
    85 r.89                     1000             2               
    86 r.90                    -1000         -1001               
    87 r.91                  3017.47      -961.504               
    88 r.92                        2             2               
    89 r.93                       -2         -1001               
    90 r.94                 -972.616      -974.891               
    91 r.95                     1001             2               
    92 r.96                    -1001         -1001               
    93 r.97                  2992.19      -979.781               
    94 r.98                     1001             2               
    95 r.99                    -1001         -1001               
    96 r.100                 2002.28      -980.544               
    97 r.101                    1001             2               
    98 r.102                   -1001         -1001               
    99 r.103                 3009.94      -982.253               
   100 r.104                    1001             2               
   101 r.105                   -1001         -1001               
   102 r.106                 2027.38      -982.458               
   103 r.107                -971.974      -971.974               
   104 r.108                -981.887      -981.887               
   105 r.109                -971.974      -971.974               
   106 r.110                -981.887      -981.887               
   107 r.111                    1000             2               
   108 r.112                   -1000         -1001               
   109 r.113                 3049.79      -960.031               
   110 r.114                       2             2               
   111 r.115                      -2         -1001               
   112 r.116                -940.296      -984.012               
   113 r.117                 1049.79      -957.743               
   114 r.118                 33.8028      -983.669               
   115 r.119                 59.7037      -957.743               
   116 r.120                -956.285      -983.669               
   117 r.121                    1001             2               
   118 r.122                   -1001         -1001               
   119 r.123                 2016.33       23.8618               
   120 r.124                    1001             2               
   121 r.125                   -1001         -1001               
   122 r.126                 2016.33       18.8466               
   123 r.127                    1000             2               
   124 r.128                   -1000         -1001               
   125 r.129                 982.528       28.0258               
   126 r.130                       2             2               
   127 r.131                      -2         -1001               
   128 r.132                 972.616       18.1133               
   129 r.133                 25.2781      -961.504               
   130 r.134                -974.722      -974.891               
   131 r.135                 25.1088      -961.504               
   132 r.136                -974.891      -974.891               
   133 r.137                    1001             2               
   134 r.138                   -1001         -1001               
   135 r.139                 1992.47      -982.253               
   136 r.140                    1001             2               
   137 r.141                   -1001         -1001               
   138 r.142                    2000      -982.458               
   139 r.143                 45.4975      -961.504               
   140 r.144                -954.502      -974.891               
   141 r.145                 45.4975      -961.504               
   142 r.146                -954.502      -974.891               
   143 r.147                    1000             2               
   144 r.148                   -1000         -1001               
   145 r.149                 2032.32      -960.031               
   146 r.150                       2             2               
   147 r.151                      -2         -1001               
   148 r.152                -967.681      -984.012               
   149 r.153                 32.3195      -957.743               
   150 r.154                -983.669      -983.669               
   151 r.155                 32.3195      -957.743               
   152 r.156                -983.669      -983.669               
   153 r.157                       2             2               
   154 r.158                      -2         -1001               
   155 r.159                 41.6091       23.8618               
   156 r.160                    1000             2               
   157 r.161                   -1000         -1001               
   158 r.162                 2041.44       18.8466               
   159 r.163                    1001             2               
   160 r.164                   -1001         -1001               
   161 r.165                 1007.81       28.0258               
   162 r.166                    1001             2               
   163 r.167                   -1001         -1001               
   164 r.168                 1997.72       18.1133               
   165 r.169                       2             2               
   166 r.170                      -2         -1001               
   167 r.171                -982.253      -982.253               
   168 r.172                    1000             2               
   169 r.173                   -1000         -1001               
   170 r.174                 2025.11      -982.458               
   171 r.175                -979.781      -979.781               
   172 r.176                 20.3887      -980.544               
   173 r.177                -979.781      -979.781               
   174 r.178                 20.3887      -980.544               
   175 r.179                    1001             2               
   176 r.180                   -1001         -1001               
   177 r.181                  2057.6      -960.031               
   178 r.182                    1001             2               
   179 r.183                   -1001         -1001               
   180 r.184                 2057.43      -984.012               
   181 r.185                 57.5976      -957.743               
   182 r.186                -958.391      -983.669               
   183 r.187                 57.4283      -957.743               
   184 r.188                 -958.56      -983.669               
   185 r.189                       2             2               
   186 r.190                      -2         -1001               
   187 r.191                 23.8618       23.8618               
   188 r.192                    1000             2               
   189 r.193                   -1000         -1001               
   190 r.194                 2016.33       18.8466               
   191 r.195                    1001             2               
   192 r.196                   -1001         -1001               
   193 r.197                 990.059       28.0258               
   194 r.198                    1001             2               
   195 r.199                   -1001         -1001               
   196 r.200                 1972.62       18.1133               
   197 r.201                    1001             2               
   198 r.202                   -1001         -1001               
   199 r.203                 2007.53       38.4956               
   200 r.204                    1001             2               
   201 r.205                   -1001         -1001               
   202 r.206                    2000       25.1088               
   203 r.207                       2             2               
   204 r.208                      -2         -1001               
   205 r.209                 982.253       20.2195               
   206 r.210                    1000             2               
   207 r.211                   -1000         -1001               
   208 r.212                 1974.89       19.4561               
   209 r.213                -962.033      -982.253               
   210 r.214                 45.4975      -982.458               
   211 r.215                -962.033      -982.253               
   212 r.216                 45.4975      -982.458               
   213 r.217                 39.8502      -960.031               
   214 r.218                 -960.15      -984.012               
   215 r.219                 32.3195      -960.031               
   216 r.220                -967.681      -984.012               
   217 r.221                 39.8502      -957.743               
   218 r.222                -976.138      -983.669               
   219 r.223                 32.3195      -957.743               
   220 r.224                -983.669      -983.669               
   221 r.225                    1000             2               
   222 r.226                   -1000         -1001               
   223 r.227                 950.209       28.0258               
   224 r.228                       2             2               
   225 r.229                      -2         -1001               
   226 r.230                 940.296       18.1133               
   227 r.231                    1000             2               
   228 r.232                   -1000         -1001               
   229 r.233                 1967.68       38.4956               
   230 r.234                       2             2               
   231 r.235                      -2         -1001               
   232 r.236                 967.681       25.1088               
   233 r.237                    1001             2               
   234 r.238                   -1001         -1001               
   235 r.239                  1942.4       20.2195               
   236 r.240                    1001             2               
   237 r.241                   -1001         -1001               
   238 r.242                 1942.57       19.4561               
   239 r.243                    1000             2               
   240 r.244                   -1000         -1001               
   241 r.245                    2000      -957.743               
   242 r.246                       2             2               
   243 r.247                      -2         -1001               
   244 r.248                -15.9884      -983.669               
   245 r.249                    1001             2               
   246 r.250                   -1001         -1001               
   247 r.251                 1984.01       23.8618               
   248 r.252                    1001             2               
   249 r.253                   -1001         -1001               
   250 r.254                    2000       18.8466               
   251 r.255                    1000             2               
   252 r.256                   -1000         -1001               
   253 r.257                    2000       39.9688               
   254 r.258                       2             2               
   255 r.259                      -2         -1001               
   256 r.260                 15.9884       15.9884               

   No. Column name       Activity     Lower bound   Upper bound
------ ------------    ------------- ------------- -------------
     1 tt                    80.5179             0               
     2 s_1_1        *              1             0             1 
     3 t_1_1                 15.9884             0               
     4 s_2_1        *              0             0             1 
     5 t_2_1                 15.9884             0               
     6 s_1_2        *              0             0             1 
     7 t_1_2                 1049.79             0               
     8 s_2_2        *              1             0             1 
     9 t_2_2                 59.7037             0               
    10 s_1_3        *              0             0             1 
    11 t_1_3                 32.3195             0               
    12 s_2_3        *              1             0             1 
    13 t_2_3                 32.3195             0               
    14 s_1_4        *              1             0             1 
    15 t_1_4                 57.5976             0               
    16 s_2_4        *              0             0             1 
    17 t_2_4                 57.4283             0               
    18 s_1_5        *              1             0             1 
    19 t_1_5                 39.8502             0               
    20 s_2_5        *              0             0             1 
    21 t_2_5                 32.3195             0               
    22 s_1_6        *              1             0             1 
    23 t_1_6                  77.817             0               
    24 s_2_6        *              0             0             1 
    25 t_2_6                  77.817             0               
    26 s_1_7        *              0             0             1 
    27 t_1_7                       0             0               
    28 s_2_7        *              1             0             1 
    29 t_2_7                       0             0               
    30 s_1_8        *              0             0             1 
    31 t_1_8                       0             0               
    32 s_2_8        *              1             0             1 
    33 t_2_8                 15.9884             0               
    34 r_1_1_2      *              1             0             1 
    35 u_1_1_2      *              0             0             1 
    36 r_2_1_2      *              1             0             1 
    37 u_2_1_2      *              0             0             1 
    38 r_1_1_3      *              1             0             1 
    39 u_1_1_3      *              0             0             1 
    40 r_2_1_3      *              1             0             1 
    41 u_2_1_3      *              0             0             1 
    42 r_1_1_4      *              0             0             1 
    43 u_1_1_4      *              0             0             1 
    44 r_2_1_4      *              1             0             1 
    45 u_2_1_4      *              0             0             1 
    46 r_1_1_5      *              0             0             1 
    47 u_1_1_5      *              0             0             1 
    48 r_2_1_5      *              1             0             1 
    49 u_2_1_5      *              0             0             1 
    50 r_1_1_8      *              1             0             1 
    51 u_1_1_8      *              0             0             1 
    52 r_2_1_8      *              1             0             1 
    53 u_2_1_8      *              0             0             1 
    54 r_1_2_3      *              1             0             1 
    55 u_1_2_3      *              0             0             1 
    56 r_2_2_3      *              0             0             1 
    57 u_2_2_3      *              1             0             1 
    58 r_1_2_4      *              1             0             1 
    59 u_1_2_4      *              0             0             1 
    60 r_2_2_4      *              1             0             1 
    61 u_2_2_4      *              0             0             1 
    62 r_1_2_5      *              1             0             1 
    63 u_1_2_5      *              0             0             1 
    64 r_2_2_5      *              1             0             1 
    65 u_2_2_5      *              0             0             1 
    66 r_1_2_7      *              1             0             1 
    67 u_1_2_7      *              0             0             1 
    68 r_2_2_7      *              0             0             1 
    69 u_2_2_7      *              1             0             1 
    70 r_1_3_5      *              1             0             1 
    71 u_1_3_5      *              0             0             1 
    72 r_2_3_5      *              1             0             1 
    73 u_2_3_5      *              0             0             1 
    74 r_1_3_7      *              1             0             1 
    75 u_1_3_7      *              0             0             1 
    76 r_2_3_7      *              0             0             1 
    77 u_2_3_7      *              1             0             1 
    78 r_1_4_5      *              0             0             1 
    79 u_1_4_5      *              1             0             1 
    80 r_2_4_5      *              1             0             1 
    81 u_2_4_5      *              0             0             1 
    82 r_1_4_7      *              1             0             1 
    83 u_1_4_7      *              0             0             1 
    84 r_2_4_7      *              1             0             1 
    85 u_2_4_7      *              0             0             1 
    86 r_1_7_8      *              1             0             1 
    87 u_1_7_8      *              0             0             1 
    88 r_2_7_8      *              0             0             1 
    89 u_2_7_8      *              0             0             1 

Integer feasibility conditions:

KKT.PE: max.abs.err = 0.00e+00 on row 0
        max.rel.err = 0.00e+00 on row 0
        High quality

KKT.PB: max.abs.err = 1.14e-13 on row 104
        max.rel.err = 1.16e-16 on row 104
        High quality

End of output
